(set-logic BV)

(synth-fun deobfucated ( (e (BitVec 64))  (d (BitVec 64))  ) (BitVec 64)
	(
		(Start (BitVec 64)
			(
				(bvnot Start)
				(bvxor Start Start)
				(bvand Start Start)
				(bvor Start Start)
				(bvneg Start)
				(bvadd Start Start)
				(bvmul Start Start)
				(bvsub Start Start)
				e d
			)
		)
	)
)

(constraint (= (deobfucated #x0000000000f46af2 #x000000000db698b5) #xfffffffff2fd6ffa))
(constraint (= (deobfucated #x000000003b8c7ee3 #x000000002617e597) #xfffffffffbec7eeb))
(constraint (= (deobfucated #x0000000015c7dd14 #x0000000010d861b0) #xffffffffffe7df40))
(constraint (= (deobfucated #x000000002710d6e8 #x0000000031d12c60) #xffffffffef3ed7c0))
(constraint (= (deobfucated #x000000000699bffb #x000000001fa4cf2d) #xffffffffe6dbbff9))
(constraint (= (deobfucated #x000000001c12b310 #x0000000035c59673) #xffffffffde3afb9c))
(constraint (= (deobfucated #x000000001cb0c483 #x000000002f3087c7) #xffffffffdcfffcbb))
(constraint (= (deobfucated #x000000000d8b5951 #x000000002ba58ab2) #xffffffffdddb7d5c))
(constraint (= (deobfucated #x000000002d7d70df #x0000000038cd592d) #xffffffffef7ff6cd))
(constraint (= (deobfucated #x0000000027a7927a #x000000000d397e91) #xfffffffff7e7937e))
(constraint (= (deobfucated #x0000000001de8a82 #x000000000700aac5) #xfffffffff9ffdfba))
(constraint (= (deobfucated #x0000000009c48156 #x000000002be6c4dc) #xffffffffddddbb70))
(constraint (= (deobfucated #x000000003367a1b3 #x000000002a671e90) #xfffffffff7ffe1e0))
(constraint (= (deobfucated #x000000003b3a7429 #x000000001ca3b537) #xfffffffffb7e7ee9))
(constraint (= (deobfucated #x000000003604a419 #x0000000010fc0262) #xffffffffff07fd9c))
(constraint (= (deobfucated #x000000001c0d5643 #x000000001d8a19a7) #xfffffffffe7df65b))
(constraint (= (deobfucated #x000000002926a9db #x00000000344501b0) #xffffffffebbeffc0))
(constraint (= (deobfucated #x000000002ab61d02 #x0000000009b3e326) #xfffffffffefe1dd8))
(constraint (= (deobfucated #x0000000015166d2a #x0000000012115e83) #xfffffffffdfeed7e))
(constraint (= (deobfucated #x00000000278f5db0 #x000000003175fbd3) #xffffffffef8f5dbc))
(check-synth)